178 110 184 31 42 22 86 27 24 97 102 68 115 
23 41 179 36 70 170 83 100 182 34 163 5 151 194 60 197 200 38 136 132 103 172 51 59 15 147 191 199 28 117 158 144 171 135 96 112 55 169 3 2 4 148 134 188 108 165 14 91 93 198 46 189 30 87 190 33 65 19 71 185 
120 125 56 192 57 142 13 21 150 162 116 167 44 127 146 128 90 161 133 174 154 168 75 9 175 81 53 153 85 98 73 173 11 50 40 6 26 123 64 10 164 111 181 18 39 80 67 122 89 183 78 45 138 107 143 92 
74 131 62 157 166 79 105 61 129 43 195 155 29 88 94 149 104 180 54 126 84 141 66 58 25 12 176 130 17 16 113 106 160 101 196 186 156 109 20 52 99 47 1 72 49 139 77 95 114 193 32 48 140 
8 119 137 118 152 35 177 69 124 37 145 159 7 187 63 82 76 
121 

